c Generated map
c Size: 9 * 9, weights in range: 1 to 10, walls: True, with ratio 0.05
c dim 5 of 7
c
p sp 81 129
c graph contains 81 nodes and 129 arcs
c
a 1 10 2
a 10 1 2
a 1 2 8
a 2 1 8
a 2 11 10
a 11 2 10
a 2 3 1
a 3 2 1
a 3 12 7
a 12 3 7
a 3 4 4
a 4 3 4
a 4 13 4
a 13 4 4
a 4 5 8
a 5 4 8
a 5 6 5
a 6 5 5
a 6 15 9
a 15 6 9
a 6 7 7
a 7 6 7
a 7 16 8
a 16 7 8
a 7 8 10
a 8 7 10
a 8 17 1
a 17 8 1
a 8 9 1
a 9 8 1
a 9 18 1
a 18 9 1
a 10 19 9
a 19 10 9
a 10 11 4
a 11 10 4
a 11 20 6
a 20 11 6
a 11 12 5
a 12 11 5
a 12 21 10
a 21 12 10
a 12 13 3
a 13 12 3
a 13 22 8
a 22 13 8
a 15 24 10
a 24 15 10
a 15 16 2
a 16 15 2
a 16 25 10
a 25 16 10
a 16 17 5
a 17 16 5
a 17 26 2
a 26 17 2
a 17 18 6
a 18 17 6
a 18 27 3
a 27 18 3
a 19 28 3
a 28 19 3
a 19 20 8
a 20 19 8
a 20 29 2
a 29 20 2
a 20 21 5
a 21 20 5
a 21 30 5
a 30 21 5
a 21 22 4
a 22 21 4
a 22 31 5
a 31 22 5
a 22 23 5
a 23 22 5
a 23 32 5
a 32 23 5
a 23 24 6
a 24 23 6
a 24 33 3
a 33 24 3
a 24 25 8
a 25 24 8
a 25 34 6
a 34 25 6
a 25 26 8
a 26 25 8
a 26 35 5
a 35 26 5
a 26 27 3
a 27 26 3
a 27 36 3
a 36 27 3
a 28 37 7
a 37 28 7
a 28 29 10
a 29 28 10
a 29 38 4
a 38 29 4
a 29 30 7
a 30 29 7
a 30 39 4
a 39 30 4
a 30 31 7
a 31 30 7
a 31 40 8
a 40 31 8
a 31 32 6
a 32 31 6
a 32 41 3
a 41 32 3
a 32 33 10
a 33 32 10
a 33 42 10
a 42 33 10
a 33 34 5
a 34 33 5
a 34 43 4
a 43 34 4
a 34 35 3
a 35 34 3
a 35 44 6
a 44 35 6
a 35 36 8
a 36 35 8
a 36 45 7
a 45 36 7
a 37 46 10
a 46 37 10
a 37 38 5
a 38 37 5
a 38 47 7
a 47 38 7
a 38 39 10
a 39 38 10
a 39 48 2
a 48 39 2
a 39 40 2
a 40 39 2
a 40 41 8
a 41 40 8
a 41 50 1
a 50 41 1
a 41 42 10
a 42 41 10
a 42 51 5
a 51 42 5
a 42 43 2
a 43 42 2
a 43 52 9
a 52 43 9
a 43 44 10
a 44 43 10
a 44 53 10
a 53 44 10
a 44 45 3
a 45 44 3
a 45 54 6
a 54 45 6
a 46 55 10
a 55 46 10
a 46 47 10
a 47 46 10
a 47 56 10
a 56 47 10
a 47 48 8
a 48 47 8
a 48 57 8
a 57 48 8
a 50 59 3
a 59 50 3
a 50 51 8
a 51 50 8
a 51 60 2
a 60 51 2
a 51 52 7
a 52 51 7
a 52 53 10
a 53 52 10
a 53 62 8
a 62 53 8
a 53 54 3
a 54 53 3
a 54 63 1
a 63 54 1
a 55 64 2
a 64 55 2
a 55 56 5
a 56 55 5
a 56 65 4
a 65 56 4
a 56 57 9
a 57 56 9
a 57 66 10
a 66 57 10
a 59 68 6
a 68 59 6
a 59 60 7
a 60 59 7
a 60 69 2
a 69 60 2
a 62 71 3
a 71 62 3
a 62 63 8
a 63 62 8
a 63 72 7
a 72 63 7
a 64 73 1
a 73 64 1
a 64 65 2
a 65 64 2
a 65 74 6
a 74 65 6
a 65 66 1
a 66 65 1
a 66 75 7
a 75 66 7
a 66 67 2
a 67 66 2
a 67 76 6
a 76 67 6
a 67 68 10
a 68 67 10
a 68 77 6
a 77 68 6
a 68 69 7
a 69 68 7
a 69 78 4
a 78 69 4
a 69 70 9
a 70 69 9
a 70 79 9
a 79 70 9
a 70 71 10
a 71 70 10
a 71 80 1
a 80 71 1
a 71 72 4
a 72 71 4
a 72 81 3
a 81 72 3
a 73 74 6
a 74 73 6
a 74 75 2
a 75 74 2
a 75 76 2
a 76 75 2
a 76 77 8
a 77 76 8
a 77 78 8
a 78 77 8
a 78 79 6
a 79 78 6
a 79 80 5
a 80 79 5
a 80 81 7
a 81 80 7
